59699
0, 26, 32, 41, 51, 24, 30, 10, 44, 1, 13, 8, 11, 17, 3, 29, 46, 33, 9, 21, 28, 20, 22, 52, 16, 47, 18, 48, 50, 39, 6, 36, 19, 49, 23, 4, 34, 7, 37, 43, 31, 40, 12, 42, 2, 5, 27, 25, 54, 53, 14, 15, 38, 45, 35
